language Essence 1.3

letting class be
        function(1 --> 9, 2 --> 6, 3 --> 6, 4 --> 4, 5 --> 9, 6 --> 9, 7 --> 10, 8 --> 9, 9 --> 8, 10 --> 5, 11 --> 8,
                 12 --> 1, 13 --> 5, 14 --> 7, 15 --> 5, 16 --> 4, 17 --> 3, 18 --> 2)
letting deck_length be 13
letting deck_width be 24
letting length be
        function(1 --> 13, 2 --> 10, 3 --> 13, 4 --> 10, 5 --> 1, 6 --> 1, 7 --> 12, 8 --> 12, 9 --> 6, 10 --> 9,
                 11 --> 12, 12 --> 10, 13 --> 1, 14 --> 8, 15 --> 2, 16 --> 8, 17 --> 7, 18 --> 13)
letting n_classes be 10
letting n_containers be 18
letting separation be function({2, 3} --> 22)
letting width be
        function(1 --> 6, 2 --> 1, 3 --> 6, 4 --> 1, 5 --> 1, 6 --> 1, 7 --> 1, 8 --> 1, 9 --> 1, 10 --> 1, 11 --> 3,
                 12 --> 1, 13 --> 3, 14 --> 2, 15 --> 1, 16 --> 1, 17 --> 1, 18 --> 1)
